p edge 98 1402
e 1 5
e 1 6
e 1 9
e 1 11
e 1 13
e 1 28
e 1 33
e 1 35
e 1 38
e 1 47
e 1 48
e 1 50
e 1 53
e 1 55
e 1 58
e 1 65
e 1 69
e 1 70
e 1 72
e 1 76
e 1 78
e 1 84
e 1 85
e 1 87
e 1 95
e 2 4
e 2 5
e 2 9
e 2 13
e 2 15
e 2 17
e 2 19
e 2 21
e 2 26
e 2 30
e 2 47
e 2 52
e 2 53
e 2 56
e 2 57
e 2 64
e 2 65
e 2 66
e 2 67
e 2 69
e 2 71
e 2 73
e 2 74
e 2 76
e 2 77
e 2 78
e 2 82
e 2 86
e 2 89
e 2 93
e 3 4
e 3 5
e 3 8
e 3 9
e 3 12
e 3 13
e 3 14
e 3 15
e 3 19
e 3 24
e 3 26
e 3 29
e 3 31
e 3 33
e 3 34
e 3 38
e 3 40
e 3 43
e 3 46
e 3 47
e 3 48
e 3 58
e 3 59
e 3 61
e 3 62
e 3 63
e 3 66
e 3 70
e 3 74
e 3 82
e 3 84
e 3 85
e 3 89
e 3 92
e 3 93
e 3 97
e 3 98
e 4 7
e 4 15
e 4 21
e 4 24
e 4 30
e 4 37
e 4 49
e 4 50
e 4 55
e 4 57
e 4 58
e 4 62
e 4 74
e 4 79
e 4 83
e 5 6
e 5 9
e 5 11
e 5 12
e 5 13
e 5 15
e 5 20
e 5 28
e 5 29
e 5 31
e 5 33
e 5 38
e 5 39
e 5 40
e 5 41
e 5 43
e 5 44
e 5 48
e 5 51
e 5 52
e 5 56
e 5 57
e 5 60
e 5 61
e 5 62
e 5 66
e 5 67
e 5 73
e 5 77
e 5 78
e 5 79
e 5 81
e 5 85
e 5 90
e 5 93
e 6 9
e 6 11
e 6 12
e 6 13
e 6 17
e 6 18
e 6 22
e 6 23
e 6 24
e 6 40
e 6 43
e 6 48
e 6 53
e 6 54
e 6 56
e 6 57
e 6 60
e 6 61
e 6 62
e 6 73
e 6 81
e 6 82
e 6 85
e 6 86
e 6 88
e 6 92
e 6 98
e 7 8
e 7 16
e 7 20
e 7 22
e 7 24
e 7 25
e 7 32
e 7 36
e 7 39
e 7 40
e 7 45
e 7 46
e 7 49
e 7 50
e 7 51
e 7 54
e 7 55
e 7 56
e 7 58
e 7 60
e 7 61
e 7 62
e 7 63
e 7 65
e 7 70
e 7 84
e 7 86
e 7 88
e 7 89
e 7 94
e 7 95
e 7 97
e 7 98
e 8 9
e 8 10
e 8 13
e 8 18
e 8 19
e 8 21
e 8 29
e 8 30
e 8 31
e 8 32
e 8 34
e 8 38
e 8 41
e 8 42
e 8 50
e 8 51
e 8 57
e 8 59
e 8 65
e 8 69
e 8 72
e 8 73
e 8 93
e 8 95
e 8 96
e 9 13
e 9 16
e 9 30
e 9 31
e 9 32
e 9 36
e 9 37
e 9 38
e 9 40
e 9 46
e 9 49
e 9 52
e 9 58
e 9 60
e 9 62
e 9 68
e 9 69
e 9 75
e 9 79
e 9 80
e 9 81
e 9 82
e 9 84
e 9 88
e 9 92
e 9 97
e 10 11
e 10 16
e 10 18
e 10 21
e 10 24
e 10 30
e 10 32
e 10 35
e 10 36
e 10 38
e 10 49
e 10 53
e 10 58
e 10 65
e 10 67
e 10 74
e 10 75
e 10 79
e 10 98
e 11 16
e 11 21
e 11 22
e 11 26
e 11 30
e 11 31
e 11 37
e 11 39
e 11 42
e 11 43
e 11 44
e 11 45
e 11 48
e 11 49
e 11 51
e 11 53
e 11 55
e 11 57
e 11 59
e 11 60
e 11 66
e 11 79
e 11 91
e 12 15
e 12 17
e 12 22
e 12 28
e 12 32
e 12 34
e 12 39
e 12 44
e 12 45
e 12 46
e 12 50
e 12 51
e 12 52
e 12 53
e 12 63
e 12 64
e 12 67
e 12 70
e 12 71
e 12 72
e 12 82
e 12 86
e 12 91
e 12 93
e 12 94
e 13 14
e 13 15
e 13 19
e 13 21
e 13 27
e 13 29
e 13 41
e 13 42
e 13 43
e 13 47
e 13 48
e 13 49
e 13 51
e 13 53
e 13 58
e 13 66
e 13 67
e 13 71
e 13 74
e 13 77
e 13 78
e 13 79
e 13 83
e 13 84
e 13 85
e 13 86
e 13 87
e 13 95
e 13 98
e 14 17
e 14 21
e 14 26
e 14 28
e 14 32
e 14 38
e 14 42
e 14 44
e 14 55
e 14 58
e 14 68
e 14 69
e 14 77
e 14 80
e 14 83
e 14 87
e 14 94
e 15 17
e 15 19
e 15 22
e 15 28
e 15 31
e 15 38
e 15 39
e 15 50
e 15 51
e 15 55
e 15 57
e 15 59
e 15 65
e 15 67
e 15 69
e 15 71
e 15 78
e 15 79
e 15 82
e 15 88
e 15 94
e 16 17
e 16 18
e 16 22
e 16 27
e 16 31
e 16 41
e 16 44
e 16 45
e 16 46
e 16 47
e 16 54
e 16 59
e 16 61
e 16 67
e 16 68
e 16 70
e 16 71
e 16 74
e 16 80
e 16 84
e 16 88
e 16 90
e 16 91
e 16 93
e 17 19
e 17 22
e 17 33
e 17 37
e 17 38
e 17 40
e 17 42
e 17 43
e 17 45
e 17 46
e 17 47
e 17 49
e 17 50
e 17 58
e 17 59
e 17 62
e 17 63
e 17 64
e 17 68
e 17 70
e 17 75
e 17 86
e 17 87
e 17 94
e 17 96
e 18 27
e 18 29
e 18 32
e 18 34
e 18 41
e 18 50
e 18 57
e 18 59
e 18 65
e 18 67
e 18 72
e 18 73
e 18 74
e 18 76
e 18 82
e 18 83
e 18 86
e 18 88
e 18 96
e 18 97
e 19 21
e 19 22
e 19 24
e 19 29
e 19 34
e 19 38
e 19 42
e 19 48
e 19 49
e 19 50
e 19 55
e 19 56
e 19 67
e 19 68
e 19 75
e 19 77
e 19 80
e 19 81
e 19 87
e 19 89
e 19 92
e 20 21
e 20 26
e 20 28
e 20 31
e 20 32
e 20 34
e 20 38
e 20 40
e 20 41
e 20 42
e 20 44
e 20 56
e 20 58
e 20 61
e 20 63
e 20 65
e 20 74
e 20 84
e 20 88
e 20 90
e 20 92
e 20 95
e 20 97
e 21 24
e 21 29
e 21 32
e 21 34
e 21 37
e 21 42
e 21 48
e 21 49
e 21 50
e 21 51
e 21 55
e 21 58
e 21 63
e 21 64
e 21 68
e 21 78
e 21 79
e 21 80
e 21 82
e 21 83
e 21 84
e 21 89
e 21 90
e 21 94
e 21 97
e 22 23
e 22 30
e 22 34
e 22 35
e 22 48
e 22 50
e 22 51
e 22 53
e 22 61
e 22 62
e 22 69
e 22 71
e 22 72
e 22 73
e 22 75
e 22 87
e 22 92
e 22 95
e 22 97
e 22 98
e 23 25
e 23 30
e 23 31
e 23 33
e 23 34
e 23 35
e 23 37
e 23 38
e 23 39
e 23 40
e 23 42
e 23 46
e 23 54
e 23 60
e 23 61
e 23 69
e 23 70
e 23 72
e 23 74
e 23 75
e 23 77
e 23 80
e 23 82
e 23 87
e 23 88
e 23 93
e 23 98
e 24 27
e 24 28
e 24 30
e 24 38
e 24 40
e 24 43
e 24 50
e 24 58
e 24 62
e 24 63
e 24 71
e 24 72
e 24 79
e 24 80
e 24 81
e 24 82
e 24 83
e 24 88
e 24 91
e 25 36
e 25 37
e 25 38
e 25 41
e 25 52
e 25 53
e 25 56
e 25 57
e 25 66
e 25 74
e 25 77
e 25 79
e 25 82
e 25 83
e 25 88
e 26 31
e 26 32
e 26 35
e 26 39
e 26 41
e 26 46
e 26 50
e 26 59
e 26 63
e 26 64
e 26 65
e 26 66
e 26 67
e 26 70
e 26 73
e 26 82
e 26 83
e 26 85
e 26 87
e 26 94
e 27 28
e 27 32
e 27 49
e 27 50
e 27 52
e 27 53
e 27 54
e 27 57
e 27 58
e 27 60
e 27 62
e 27 63
e 27 66
e 27 69
e 27 73
e 27 77
e 27 79
e 27 83
e 27 86
e 27 87
e 27 98
e 28 31
e 28 38
e 28 44
e 28 49
e 28 51
e 28 52
e 28 53
e 28 56
e 28 57
e 28 58
e 28 61
e 28 63
e 28 65
e 28 66
e 28 69
e 28 71
e 28 74
e 28 77
e 28 81
e 28 83
e 28 89
e 28 90
e 28 93
e 28 94
e 28 97
e 29 30
e 29 32
e 29 33
e 29 41
e 29 42
e 29 43
e 29 45
e 29 51
e 29 52
e 29 55
e 29 56
e 29 61
e 29 66
e 29 67
e 29 74
e 29 75
e 29 78
e 29 80
e 29 81
e 29 82
e 29 88
e 30 31
e 30 39
e 30 41
e 30 42
e 30 51
e 30 52
e 30 59
e 30 60
e 30 64
e 30 65
e 30 67
e 30 70
e 30 72
e 30 73
e 30 74
e 30 77
e 30 79
e 30 91
e 31 32
e 31 36
e 31 39
e 31 41
e 31 43
e 31 45
e 31 48
e 31 51
e 31 52
e 31 54
e 31 57
e 31 58
e 31 59
e 31 60
e 31 63
e 31 65
e 31 68
e 31 75
e 31 83
e 31 94
e 31 95
e 32 35
e 32 37
e 32 39
e 32 50
e 32 52
e 32 54
e 32 59
e 32 61
e 32 63
e 32 65
e 32 71
e 32 79
e 32 81
e 32 82
e 32 84
e 32 90
e 32 93
e 33 37
e 33 38
e 33 43
e 33 46
e 33 47
e 33 48
e 33 51
e 33 52
e 33 54
e 33 55
e 33 56
e 33 58
e 33 59
e 33 60
e 33 61
e 33 66
e 33 67
e 33 68
e 33 74
e 33 76
e 33 77
e 33 79
e 33 82
e 33 86
e 33 87
e 33 93
e 33 95
e 34 38
e 34 47
e 34 49
e 34 50
e 34 51
e 34 54
e 34 56
e 34 59
e 34 61
e 34 62
e 34 65
e 34 67
e 34 73
e 34 79
e 34 82
e 34 84
e 34 86
e 34 88
e 34 89
e 34 90
e 34 98
e 35 40
e 35 44
e 35 45
e 35 52
e 35 55
e 35 56
e 35 58
e 35 61
e 35 69
e 35 70
e 35 73
e 35 80
e 35 90
e 35 91
e 35 96
e 36 38
e 36 42
e 36 46
e 36 50
e 36 55
e 36 56
e 36 63
e 36 67
e 36 70
e 36 74
e 36 75
e 36 79
e 36 81
e 36 82
e 36 88
e 36 90
e 37 40
e 37 43
e 37 50
e 37 56
e 37 67
e 37 68
e 37 70
e 37 72
e 37 74
e 37 77
e 37 81
e 37 85
e 37 86
e 37 87
e 37 88
e 37 89
e 37 93
e 37 96
e 38 41
e 38 45
e 38 50
e 38 59
e 38 63
e 38 67
e 38 72
e 38 74
e 38 75
e 38 76
e 38 78
e 38 81
e 38 83
e 38 90
e 38 91
e 38 97
e 39 41
e 39 43
e 39 51
e 39 58
e 39 59
e 39 60
e 39 61
e 39 63
e 39 66
e 39 67
e 39 71
e 39 80
e 39 82
e 39 83
e 39 85
e 39 88
e 39 92
e 39 95
e 39 96
e 39 98
e 40 47
e 40 54
e 40 57
e 40 58
e 40 59
e 40 61
e 40 65
e 40 66
e 40 74
e 40 76
e 40 79
e 40 89
e 40 94
e 40 96
e 40 97
e 40 98
e 41 50
e 41 52
e 41 54
e 41 57
e 41 61
e 41 64
e 41 65
e 41 68
e 41 79
e 41 82
e 41 83
e 41 92
e 41 94
e 42 43
e 42 46
e 42 47
e 42 55
e 42 56
e 42 57
e 42 66
e 42 67
e 42 72
e 42 81
e 42 86
e 42 87
e 42 90
e 42 91
e 42 92
e 42 95
e 42 98
e 43 47
e 43 49
e 43 52
e 43 55
e 43 58
e 43 60
e 43 64
e 43 69
e 43 74
e 43 76
e 43 85
e 43 88
e 43 91
e 43 92
e 43 97
e 44 45
e 44 50
e 44 53
e 44 54
e 44 58
e 44 59
e 44 60
e 44 62
e 44 64
e 44 65
e 44 66
e 44 68
e 44 71
e 44 72
e 44 83
e 44 86
e 44 88
e 44 91
e 44 94
e 44 98
e 45 46
e 45 47
e 45 57
e 45 58
e 45 62
e 45 64
e 45 67
e 45 69
e 45 73
e 45 76
e 45 78
e 45 79
e 45 84
e 45 85
e 45 88
e 45 90
e 45 94
e 46 47
e 46 49
e 46 52
e 46 53
e 46 56
e 46 58
e 46 67
e 46 72
e 46 78
e 46 90
e 46 93
e 46 95
e 46 97
e 47 49
e 47 51
e 47 56
e 47 58
e 47 59
e 47 60
e 47 63
e 47 67
e 47 68
e 47 70
e 47 78
e 47 82
e 47 85
e 47 86
e 47 87
e 47 90
e 47 92
e 47 93
e 47 94
e 47 95
e 48 53
e 48 54
e 48 55
e 48 57
e 48 62
e 48 65
e 48 71
e 48 79
e 48 84
e 48 89
e 48 90
e 48 91
e 48 93
e 48 94
e 49 52
e 49 57
e 49 62
e 49 66
e 49 70
e 49 74
e 49 79
e 49 80
e 49 81
e 49 85
e 49 88
e 49 89
e 49 90
e 49 91
e 50 59
e 50 62
e 50 66
e 50 71
e 50 72
e 50 73
e 50 74
e 50 75
e 50 77
e 50 78
e 50 79
e 50 85
e 50 88
e 50 94
e 51 52
e 51 53
e 51 55
e 51 57
e 51 59
e 51 60
e 51 67
e 51 74
e 51 79
e 51 83
e 51 84
e 51 85
e 51 87
e 51 88
e 51 93
e 52 54
e 52 63
e 52 64
e 52 67
e 52 69
e 52 70
e 52 72
e 52 73
e 52 76
e 52 79
e 52 80
e 52 84
e 53 54
e 53 55
e 53 57
e 53 68
e 53 69
e 53 70
e 53 81
e 53 82
e 53 85
e 53 95
e 54 55
e 54 57
e 54 61
e 54 66
e 54 74
e 54 77
e 54 79
e 54 82
e 54 87
e 54 89
e 54 91
e 54 94
e 54 95
e 54 96
e 55 56
e 55 57
e 55 59
e 55 62
e 55 63
e 55 64
e 55 66
e 55 68
e 55 72
e 55 74
e 55 80
e 55 87
e 55 88
e 55 94
e 55 98
e 56 59
e 56 60
e 56 61
e 56 66
e 56 69
e 56 73
e 56 75
e 56 76
e 56 79
e 56 81
e 56 82
e 56 84
e 56 88
e 56 89
e 56 90
e 56 96
e 56 98
e 57 58
e 57 61
e 57 63
e 57 65
e 57 72
e 57 73
e 57 75
e 57 78
e 57 88
e 57 90
e 57 91
e 57 93
e 58 59
e 58 63
e 58 64
e 58 72
e 58 73
e 58 74
e 58 79
e 58 80
e 58 81
e 58 83
e 58 88
e 58 90
e 58 94
e 58 95
e 58 97
e 59 64
e 59 67
e 59 69
e 59 74
e 59 76
e 59 77
e 59 79
e 59 83
e 59 91
e 59 95
e 59 96
e 59 97
e 60 62
e 60 68
e 60 74
e 60 75
e 60 83
e 60 87
e 60 88
e 60 90
e 60 92
e 60 94
e 60 95
e 60 96
e 61 68
e 61 73
e 61 75
e 61 78
e 61 80
e 61 82
e 61 85
e 61 86
e 61 92
e 61 95
e 61 96
e 61 98
e 62 68
e 62 71
e 62 72
e 62 73
e 62 74
e 62 81
e 62 85
e 62 88
e 62 92
e 62 93
e 62 94
e 62 97
e 62 98
e 63 66
e 63 68
e 63 72
e 63 74
e 63 76
e 63 85
e 63 87
e 63 88
e 63 89
e 63 90
e 64 67
e 64 69
e 64 71
e 64 72
e 64 75
e 64 78
e 64 81
e 64 85
e 64 92
e 64 96
e 64 97
e 65 68
e 65 71
e 65 72
e 65 74
e 65 81
e 65 83
e 65 86
e 65 88
e 65 94
e 65 95
e 66 68
e 66 71
e 66 76
e 66 78
e 66 80
e 66 82
e 66 88
e 66 93
e 66 97
e 67 69
e 67 76
e 67 79
e 67 82
e 67 85
e 67 87
e 67 88
e 67 91
e 67 92
e 67 94
e 68 75
e 68 76
e 68 83
e 68 85
e 68 87
e 68 88
e 68 90
e 68 91
e 68 95
e 68 97
e 69 71
e 69 73
e 69 78
e 69 79
e 69 84
e 69 88
e 69 90
e 69 93
e 69 95
e 69 96
e 69 97
e 70 72
e 70 81
e 70 84
e 70 87
e 70 89
e 70 92
e 70 94
e 71 79
e 71 81
e 71 82
e 71 86
e 71 90
e 71 91
e 71 93
e 72 80
e 72 86
e 72 91
e 72 92
e 72 95
e 73 75
e 73 76
e 73 79
e 73 82
e 73 86
e 73 87
e 73 88
e 73 91
e 73 93
e 73 95
e 74 75
e 74 79
e 74 81
e 74 84
e 74 86
e 74 90
e 74 91
e 74 95
e 74 97
e 75 80
e 75 85
e 75 88
e 75 90
e 75 92
e 75 93
e 76 82
e 76 85
e 77 78
e 77 79
e 77 84
e 77 87
e 77 95
e 78 80
e 78 85
e 78 98
e 79 84
e 79 89
e 79 90
e 79 94
e 79 95
e 79 97
e 80 84
e 80 86
e 80 89
e 80 91
e 80 92
e 80 96
e 81 85
e 81 87
e 81 89
e 81 92
e 81 94
e 81 96
e 81 98
e 82 89
e 82 92
e 82 97
e 82 98
e 83 85
e 83 89
e 83 90
e 83 93
e 83 94
e 83 96
e 83 97
e 83 98
e 84 85
e 84 86
e 84 87
e 84 90
e 84 96
e 84 98
e 85 89
e 85 93
e 85 94
e 86 87
e 86 89
e 86 92
e 86 97
e 87 93
e 87 95
e 87 96
e 87 97
e 88 91
e 88 93
e 88 96
e 89 93
e 90 93
e 90 95
e 90 97
e 91 92
e 91 97
e 91 98
e 92 94
e 92 98
e 94 95
e 95 97
e 95 98
